NAME /Users/henri/Research/solvers/instances/idol-instances/robust/collection/cbp_Subramanyam_et_al_2020/CapBud_N20_1/models/uncertain_technology_matrix/
ROWS
 N  OBJ
 L  capacity
 L  c_2210
 L  c_2211
 L  c_2212
 L  c_2213
 L  c_2214
 L  c_2215
 L  c_2216
 L  c_2217
 L  c_2218
 L  c_2219
 L  c_2220
 L  c_2221
 L  c_2222
 L  c_2223
 L  c_2224
 L  c_2225
 L  c_2226
 L  c_2227
 L  c_2228
 L  c_2229
COLUMNS
    MARKER    'MARKER'                 'INTORG'
    x_0        OBJ        8.96921
    x_0        c_2210     1
    x_0        capacity   1.79384
    x_1        OBJ        3.30878
    x_1        c_2211     1
    x_1        capacity   0.661755
    x_2        OBJ        3.97418
    x_2        c_2212     1
    x_2        capacity   0.794836
    x_3        OBJ        2.65082
    x_3        c_2213     1
    x_3        capacity   0.530165
    x_4        OBJ        0.449388
    x_4        c_2214     1
    x_4        capacity   0.0898776
    x_5        OBJ        0.162337
    x_5        c_2215     1
    x_5        capacity   0.0324673
    x_6        OBJ        2.72438
    x_6        c_2216     1
    x_6        capacity   0.544876
    x_7        OBJ        9.41174
    x_7        c_2217     1
    x_7        capacity   1.88235
    x_8        OBJ        3.24238
    x_8        c_2218     1
    x_8        capacity   0.648476
    x_9        OBJ        8.88572
    x_9        c_2219     1
    x_9        capacity   1.77714
    x_10       OBJ        1.18123
    x_10       c_2220     1
    x_10       capacity   0.236245
    x_11       OBJ        6.74669
    x_11       c_2221     1
    x_11       capacity   1.34934
    x_12       OBJ        3.28577
    x_12       c_2222     1
    x_12       capacity   0.657154
    x_13       OBJ        8.92485
    x_13       c_2223     1
    x_13       capacity   1.78497
    x_14       OBJ        6.97735
    x_14       c_2224     1
    x_14       capacity   1.39547
    x_15       OBJ        3.42129
    x_15       c_2225     1
    x_15       capacity   0.684259
    x_16       OBJ        4.87534
    x_16       c_2226     1
    x_16       capacity   0.975067
    x_17       OBJ        2.34641
    x_17       c_2227     1
    x_17       capacity   0.469282
    x_18       OBJ        0.301104
    x_18       c_2228     1
    x_18       capacity   0.0602209
    x_19       OBJ        0.647331
    x_19       c_2229     1
    x_19       capacity   0.129466
    y_0        OBJ        7.17537
    y_0        c_2210     1
    y_0        capacity   1.79384
    y_1        OBJ        2.64702
    y_1        c_2211     1
    y_1        capacity   0.661755
    y_2        OBJ        3.17934
    y_2        c_2212     1
    y_2        capacity   0.794836
    y_3        OBJ        2.12066
    y_3        c_2213     1
    y_3        capacity   0.530165
    y_4        OBJ        0.35951
    y_4        c_2214     1
    y_4        capacity   0.0898776
    y_5        OBJ        0.129869
    y_5        c_2215     1
    y_5        capacity   0.0324673
    y_6        OBJ        2.1795
    y_6        c_2216     1
    y_6        capacity   0.544876
    y_7        OBJ        7.52939
    y_7        c_2217     1
    y_7        capacity   1.88235
    y_8        OBJ        2.5939
    y_8        c_2218     1
    y_8        capacity   0.648476
    y_9        OBJ        7.10858
    y_9        c_2219     1
    y_9        capacity   1.77714
    y_10       OBJ        0.944981
    y_10       c_2220     1
    y_10       capacity   0.236245
    y_11       OBJ        5.39736
    y_11       c_2221     1
    y_11       capacity   1.34934
    y_12       OBJ        2.62862
    y_12       c_2222     1
    y_12       capacity   0.657154
    y_13       OBJ        7.13988
    y_13       c_2223     1
    y_13       capacity   1.78497
    y_14       OBJ        5.58188
    y_14       c_2224     1
    y_14       capacity   1.39547
    y_15       OBJ        2.73704
    y_15       c_2225     1
    y_15       capacity   0.684259
    y_16       OBJ        3.90027
    y_16       c_2226     1
    y_16       capacity   0.975067
    y_17       OBJ        1.87713
    y_17       c_2227     1
    y_17       capacity   0.469282
    y_18       OBJ        0.240883
    y_18       c_2228     1
    y_18       capacity   0.0602209
    y_19       OBJ        0.517865
    y_19       c_2229     1
    y_19       capacity   0.129466
    MARKER    'MARKER'                 'INTEND'
RHS
    RHS       capacity   41.2431
    RHS       c_2210     1
    RHS       c_2211     1
    RHS       c_2212     1
    RHS       c_2213     1
    RHS       c_2214     1
    RHS       c_2215     1
    RHS       c_2216     1
    RHS       c_2217     1
    RHS       c_2218     1
    RHS       c_2219     1
    RHS       c_2220     1
    RHS       c_2221     1
    RHS       c_2222     1
    RHS       c_2223     1
    RHS       c_2224     1
    RHS       c_2225     1
    RHS       c_2226     1
    RHS       c_2227     1
    RHS       c_2228     1
    RHS       c_2229     1
BOUNDS
 LI BND       x_0        0
 UI BND       x_0        1
 LI BND       x_1        0
 UI BND       x_1        1
 LI BND       x_2        0
 UI BND       x_2        1
 LI BND       x_3        0
 UI BND       x_3        1
 LI BND       x_4        0
 UI BND       x_4        1
 LI BND       x_5        0
 UI BND       x_5        1
 LI BND       x_6        0
 UI BND       x_6        1
 LI BND       x_7        0
 UI BND       x_7        1
 LI BND       x_8        0
 UI BND       x_8        1
 LI BND       x_9        0
 UI BND       x_9        1
 LI BND       x_10       0
 UI BND       x_10       1
 LI BND       x_11       0
 UI BND       x_11       1
 LI BND       x_12       0
 UI BND       x_12       1
 LI BND       x_13       0
 UI BND       x_13       1
 LI BND       x_14       0
 UI BND       x_14       1
 LI BND       x_15       0
 UI BND       x_15       1
 LI BND       x_16       0
 UI BND       x_16       1
 LI BND       x_17       0
 UI BND       x_17       1
 LI BND       x_18       0
 UI BND       x_18       1
 LI BND       x_19       0
 UI BND       x_19       1
 LI BND       y_0        0
 UI BND       y_0        1
 LI BND       y_1        0
 UI BND       y_1        1
 LI BND       y_2        0
 UI BND       y_2        1
 LI BND       y_3        0
 UI BND       y_3        1
 LI BND       y_4        0
 UI BND       y_4        1
 LI BND       y_5        0
 UI BND       y_5        1
 LI BND       y_6        0
 UI BND       y_6        1
 LI BND       y_7        0
 UI BND       y_7        1
 LI BND       y_8        0
 UI BND       y_8        1
 LI BND       y_9        0
 UI BND       y_9        1
 LI BND       y_10       0
 UI BND       y_10       1
 LI BND       y_11       0
 UI BND       y_11       1
 LI BND       y_12       0
 UI BND       y_12       1
 LI BND       y_13       0
 UI BND       y_13       1
 LI BND       y_14       0
 UI BND       y_14       1
 LI BND       y_15       0
 UI BND       y_15       1
 LI BND       y_16       0
 UI BND       y_16       1
 LI BND       y_17       0
 UI BND       y_17       1
 LI BND       y_18       0
 UI BND       y_18       1
 LI BND       y_19       0
 UI BND       y_19       1
ENDATA
